<?xml version = "1.0" standalone="yes"?>
<!-- This file has been generated by DOcplex version 2.23.222  -->
<CPLEXSolution version="1.0">
 <header
   problemName="CVRP"
   objectiveValue="16038"
  />
 <variables>
  <variable name="x_0_2" index="1" value="1.00000"/>
  <variable name="x_0_4" index="3" value="1.00000"/>
  <variable name="x_0_6" index="5" value="1.00000"/>
  <variable name="x_0_7" index="6" value="1.00000"/>
  <variable name="x_0_11" index="10" value="1.00000"/>
  <variable name="x_0_12" index="11" value="1.00000"/>
  <variable name="x_0_13" index="12" value="1.00000"/>
  <variable name="x_0_19" index="18" value="1.00000"/>
  <variable name="x_0_20" index="19" value="1.00000"/>
  <variable name="x_0_21" index="20" value="1.00000"/>
  <variable name="x_0_22" index="21" value="1.00000"/>
  <variable name="x_0_23" index="22" value="1.00000"/>
  <variable name="x_0_26" index="25" value="1.00000"/>
  <variable name="x_0_29" index="28" value="1.00000"/>
  <variable name="x_1_8" index="36" value="1.00000"/>
  <variable name="x_2_3" index="60" value="1.00000"/>
  <variable name="x_3_0" index="87" value="1.00000"/>
  <variable name="x_4_25" index="140" value="1.00000"/>
  <variable name="x_5_27" index="171" value="1.00000"/>
  <variable name="x_6_17" index="190" value="1.00000"/>
  <variable name="x_7_9" index="211" value="1.00000"/>
  <variable name="x_8_0" index="232" value="1.00000"/>
  <variable name="x_9_14" index="274" value="1.00000"/>
  <variable name="x_10_0" index="290" value="1.00000"/>
  <variable name="x_11_18" index="336" value="1.00000"/>
  <variable name="x_12_16" index="363" value="1.00000"/>
  <variable name="x_13_0" index="377" value="1.00000"/>
  <variable name="x_14_0" index="406" value="1.00000"/>
  <variable name="x_15_0" index="435" value="1.00000"/>
  <variable name="x_16_0" index="464" value="1.00000"/>
  <variable name="x_17_0" index="493" value="1.00000"/>
  <variable name="x_18_28" index="549" value="1.00000"/>
  <variable name="x_19_0" index="551" value="1.00000"/>
  <variable name="x_20_24" index="603" value="1.00000"/>
  <variable name="x_21_15" index="624" value="1.00000"/>
  <variable name="x_22_1" index="639" value="1.00000"/>
  <variable name="x_23_0" index="667" value="1.00000"/>
  <variable name="x_24_0" index="696" value="1.00000"/>
  <variable name="x_25_0" index="725" value="1.00000"/>
  <variable name="x_26_5" index="759" value="1.00000"/>
  <variable name="x_27_0" index="783" value="1.00000"/>
  <variable name="x_28_0" index="812" value="1.00000"/>
  <variable name="x_29_10" index="851" value="1.00000"/>
  <variable name="u_1" index="870" value="16.00000"/>
  <variable name="u_2" index="871" value="17.00000"/>
  <variable name="u_3" index="872" value="20.00000"/>
  <variable name="u_4" index="873" value="18.00000"/>
  <variable name="u_5" index="874" value="15.00000"/>
  <variable name="u_6" index="875" value="16.00000"/>
  <variable name="u_7" index="876" value="4.00000"/>
  <variable name="u_8" index="877" value="21.00000"/>
  <variable name="u_9" index="878" value="6.00000"/>
  <variable name="u_10" index="879" value="20.00000"/>
  <variable name="u_11" index="880" value="1.00000"/>
  <variable name="u_12" index="881" value="13.00000"/>
  <variable name="u_13" index="882" value="21.00000"/>
  <variable name="u_14" index="883" value="21.00000"/>
  <variable name="u_15" index="884" value="21.00000"/>
  <variable name="u_16" index="885" value="21.00000"/>
  <variable name="u_17" index="886" value="21.00000"/>
  <variable name="u_18" index="887" value="17.00000"/>
  <variable name="u_19" index="888" value="21.00000"/>
  <variable name="u_20" index="889" value="12.00000"/>
  <variable name="u_21" index="890" value="6.00000"/>
  <variable name="u_22" index="891" value="2.00000"/>
  <variable name="u_23" index="892" value="21.00000"/>
  <variable name="u_24" index="893" value="21.00000"/>
  <variable name="u_25" index="894" value="21.00000"/>
  <variable name="u_26" index="895" value="6.00000"/>
  <variable name="u_27" index="896" value="18.00000"/>
  <variable name="u_28" index="897" value="18.00000"/>
  <variable name="u_29" index="898" value="1.00000"/>
 </variables>
</CPLEXSolution>
